Version identifier: 22.1.1.0 | 2022-11-28 | 9160aff4d
CPXPARAM_Threads                                 1
CPXPARAM_MIP_Strategy_VariableSelect             3
CPXPARAM_TimeLimit                               599.99895368700004
Found incumbent of value 0.000000 after 0.00 sec. (0.28 ticks)

Root node processing (before b&c):
  Real time             =    0.00 sec. (0.32 ticks)
Sequential b&c:
  Real time             =    0.00 sec. (0.00 ticks)
                          ------------
Total (root+branch&cut) =    0.00 sec. (0.32 ticks)
Version identifier: 22.1.1.0 | 2022-11-28 | 9160aff4d
CPXPARAM_Threads                                 1
CPXPARAM_MIP_Strategy_VariableSelect             3
CPXPARAM_TimeLimit                               599.99033090499995
Found incumbent of value 0.000000 after 0.00 sec. (0.42 ticks)

Root node processing (before b&c):
  Real time             =    0.00 sec. (0.48 ticks)
Sequential b&c:
  Real time             =    0.00 sec. (0.00 ticks)
                          ------------
Total (root+branch&cut) =    0.00 sec. (0.48 ticks)
Version identifier: 22.1.1.0 | 2022-11-28 | 9160aff4d
CPXPARAM_Threads                                 1
CPXPARAM_MIP_Strategy_VariableSelect             3
CPXPARAM_TimeLimit                               599.97948523800005
Found incumbent of value 0.000000 after 0.00 sec. (0.49 ticks)

Root node processing (before b&c):
  Real time             =    0.00 sec. (0.56 ticks)
Sequential b&c:
  Real time             =    0.00 sec. (0.00 ticks)
                          ------------
Total (root+branch&cut) =    0.00 sec. (0.56 ticks)
Version identifier: 22.1.1.0 | 2022-11-28 | 9160aff4d
CPXPARAM_Threads                                 1
CPXPARAM_MIP_Strategy_VariableSelect             3
CPXPARAM_TimeLimit                               599.96702975400001
Found incumbent of value 0.000000 after 0.00 sec. (0.52 ticks)

Root node processing (before b&c):
  Real time             =    0.00 sec. (0.59 ticks)
Sequential b&c:
  Real time             =    0.00 sec. (0.00 ticks)
                          ------------
Total (root+branch&cut) =    0.00 sec. (0.59 ticks)
Version identifier: 22.1.1.0 | 2022-11-28 | 9160aff4d
CPXPARAM_Threads                                 1
CPXPARAM_MIP_Strategy_VariableSelect             3
CPXPARAM_TimeLimit                               599.95353456600003
Found incumbent of value 0.000000 after 0.00 sec. (0.54 ticks)

Root node processing (before b&c):
  Real time             =    0.00 sec. (0.61 ticks)
Sequential b&c:
  Real time             =    0.00 sec. (0.00 ticks)
                          ------------
Total (root+branch&cut) =    0.00 sec. (0.61 ticks)
Version identifier: 22.1.1.0 | 2022-11-28 | 9160aff4d
CPXPARAM_Threads                                 1
CPXPARAM_MIP_Strategy_VariableSelect             3
CPXPARAM_TimeLimit                               599.93981927599998
Found incumbent of value 0.000000 after 0.00 sec. (0.55 ticks)

Root node processing (before b&c):
  Real time             =    0.00 sec. (0.62 ticks)
Sequential b&c:
  Real time             =    0.00 sec. (0.00 ticks)
                          ------------
Total (root+branch&cut) =    0.00 sec. (0.62 ticks)
Version identifier: 22.1.1.0 | 2022-11-28 | 9160aff4d
CPXPARAM_Threads                                 1
CPXPARAM_MIP_Strategy_VariableSelect             3
CPXPARAM_TimeLimit                               599.92615053600002
Tried aggregator 1 time.
MIP Presolve eliminated 373 rows and 1074 columns.
Reduced MIP has 1787 rows, 3222 columns, and 23472 nonzeros.
Reduced MIP has 3222 binaries, 0 generals, 0 SOSs, and 0 indicators.
Presolve time = 0.01 sec. (12.84 ticks)
Found incumbent of value 0.000000 after 0.04 sec. (39.19 ticks)

Root node processing (before b&c):
  Real time             =    0.04 sec. (39.35 ticks)
Sequential b&c:
  Real time             =    0.00 sec. (0.00 ticks)
                          ------------
Total (root+branch&cut) =    0.04 sec. (39.35 ticks)
Version identifier: 22.1.1.0 | 2022-11-28 | 9160aff4d
CPXPARAM_Threads                                 1
CPXPARAM_MIP_Strategy_VariableSelect             3
CPXPARAM_TimeLimit                               599.86958251700003
Tried aggregator 1 time.
MIP Presolve eliminated 374 rows and 1077 columns.
Reduced MIP has 1792 rows, 3231 columns, and 23538 nonzeros.
Reduced MIP has 3231 binaries, 0 generals, 0 SOSs, and 0 indicators.
Presolve time = 0.01 sec. (12.88 ticks)
Found incumbent of value 0.000000 after 0.03 sec. (40.10 ticks)

Root node processing (before b&c):
  Real time             =    0.03 sec. (40.26 ticks)
Sequential b&c:
  Real time             =    0.00 sec. (0.00 ticks)
                          ------------
Total (root+branch&cut) =    0.03 sec. (40.26 ticks)
Version identifier: 22.1.1.0 | 2022-11-28 | 9160aff4d
CPXPARAM_Threads                                 1
CPXPARAM_MIP_Strategy_VariableSelect             3
CPXPARAM_TimeLimit                               599.82186753400003
Tried aggregator 1 time.
MIP Presolve eliminated 375 rows and 1080 columns.
Reduced MIP has 1797 rows, 3240 columns, and 23604 nonzeros.
Reduced MIP has 3240 binaries, 0 generals, 0 SOSs, and 0 indicators.
Presolve time = 0.01 sec. (12.92 ticks)
Found incumbent of value 0.000000 after 0.03 sec. (38.09 ticks)

Root node processing (before b&c):
  Real time             =    0.03 sec. (38.25 ticks)
Sequential b&c:
  Real time             =    0.00 sec. (0.00 ticks)
                          ------------
Total (root+branch&cut) =    0.03 sec. (38.25 ticks)
Primal:	360
Dual:	360
Status:	Optimal
Time:	0.223333
Sequence:
	0
	1
	5
	4
	0
	11
	4
	9
	9
	9
	4
	9
	5
	0
	9
	5
	0
	5
	4
	1
	4
	0
	5
	9
	5
	5
	9
	0
	9
	5
	5
	9
	4
	4
	0
	5
	9
	5
	5
	9
	4
	4
	9
	2
	4
	4
	1
	9
	9
	5
	9
	9
	5
	9
	9
	5
	5
	9
	0
	5
	1
	9
	0
	9
	5
	9
	0
	5
	5
	9
	9
	0
	4
	9
	9
	4
	4
	0
	4
	9
	5
	0
	5
	9
	0
	9
	4
	0
	5
	4
	0
	4
	9
	9
	9
	0
	9
	9
	9
	5
	1
	9
	5
	11
	0
	9
	5
	5
	0
	9
	4
	1
	9
	5
	3
	9
	5
	9
	9
	9
	5
	3
	0
	9
	9
	5
	0
	5
	9
	0
	5
	5
	9
	4
	5
	9
	1
	0
	5
	9
	4
	0
	9
	9
	0
	9
	4
	5
	0
	4
	9
	4
	9
	4
	4
	9
	0
	4
	5
	9
	9
	5
	9
	5
	0
	4
	5
	9
	4
	0
	5
	9
	9
	4
	9
	0
	4
	9
	1
	9
	1
	5
	9
	9
	5
	1
	5
	9
	5
	9
	5
	5
	9
	0
	5
	9
	4
	9
	5
	4
	9
	9
	4
	4
	1
	9
	5
	0
	5
	9
	9
	0
	1
	9
	0
	5
	9
	0
	1
	9
	9
	9
	1
	9
	0
	1
	4
	0
	9
	9
	5
	4
	0
	9
	9
	5
	4
	1
	5
	5
	9
	9
	4
	9
	5
	9
	0
	1
	9
	0
	5
	5
	9
	4
	9
	0
	4
	4
	0
	5
	9
	4
	9
	4
	9
	0
	5
	9
	5
	9
	0
	5
	5
	9
	4
	5
	0
	4
	9
	4
	9
	9
	4
	0
	9
	1
	0
	11
	9
	9
	5
	4
	9
	5
	4
	0
	9
	5
	5
	9
	5
	0
	4
	11
	9
	0
	9
	4
	4
	9
	5
	0
	5
	9
	4
	9
	5
	4
	0
	9
	9
	9
	5
	3
	9
	5
	0
	4
	9
	0
	4
	4
	9
	5
	5
	0
	9
	4
	1
	4
	0
	4
	10
	4
	5
	9
	9
	0
	9
	1
	9
	4
	5
	9
	9
	5
	0
	4
	4
	0
